# 7189
param n := 25;
param s := 1;
set E :=  (0,2) (0,7) (0,8) (0,13) (0,20) (1,9) (1,12) (1,15) (2,22) (3,18) (3,20) (3,22) (4,7) (4,13) (4,19) (4,21) (5,6) (5,12) (5,23) (6,11) (6,24) (7,12) (8,13) (8,22) (9,18) (10,12) (10,18) (11,16) (11,24) (12,15) (13,16) (13,21) (14,21) (15,24) (17,24) (19,24) (21,22) (21,23);
